Rodando pra 1h

Optimize a model with 154 rows, 140 columns and 1934 nonzeros
Coefficient statistics:
  Matrix range    [1e+00, 1e+04]
  Objective range [2e-01, 8e-01]
  Bounds range    [1e+00, 1e+04]
  RHS range       [1e+00, 1e+04]
Found heuristic solution: objective 257.8
Presolve removed 9 rows and 8 columns
Presolve time: 0.00s
Presolved: 145 rows, 132 columns, 1800 nonzeros
Variable types: 20 continuous, 112 integer (110 binary)

Root relaxation: objective 4.938235e+01, 73 iterations, 0.00 seconds

    Nodes    |    Current Node    |     Objective Bounds      |     Work
 Expl Unexpl |  Obj  Depth IntInf | Incumbent    BestBd   Gap | It/Node Time

     0     0   49.38235    0   11  257.80000   49.38235  80.8%     -    0s
H    0     0                     239.6000000   49.38235  79.4%     -    0s
H    0     0                     237.8000000   49.38235  79.2%     -    0s
     0     0  102.41902    0   13  237.80000  102.41902  56.9%     -    0s
H    0     0                     236.2000000  102.41902  56.6%     -    0s
H    0     0                     230.2000000  102.41902  55.5%     -    0s
     0     0  112.02755    0   13  230.20000  112.02755  51.3%     -    0s
H    0     0                     213.4000000  112.02755  47.5%     -    0s
H    0     0                     212.4000000  112.02755  47.3%     -    0s
     0     0  112.03350    0   14  212.40000  112.03350  47.3%     -    0s
     0     0  119.57616    0   12  212.40000  119.57616  43.7%     -    0s
     0     0  120.00174    0   12  212.40000  120.00174  43.5%     -    0s
     0     0  121.86206    0   19  212.40000  121.86206  42.6%     -    0s
     0     0  122.97249    0   17  212.40000  122.97249  42.1%     -    0s
     0     0  123.13534    0   20  212.40000  123.13534  42.0%     -    0s
H    0     0                     210.6000000  123.13534  41.5%     -    0s
     0     0  123.64770    0   22  210.60000  123.64770  41.3%     -    0s
     0     0  123.77147    0   22  210.60000  123.77147  41.2%     -    0s
H    0     0                     209.8000000  123.77147  41.0%     -    0s
     0     0  123.94344    0   19  209.80000  123.94344  40.9%     -    0s
     0     0  124.41034    0   14  209.80000  124.41034  40.7%     -    0s
     0     0  124.58357    0   15  209.80000  124.58357  40.6%     -    0s
     0     0  124.74302    0   18  209.80000  124.74302  40.5%     -    0s
     0     0  124.82387    0   21  209.80000  124.82387  40.5%     -    0s
     0     0  126.16707    0   38  209.80000  126.16707  39.9%     -    0s
H    0     0                     204.0000000  126.16707  38.2%     -    0s
     0     0  126.57822    0   38  204.00000  126.57822  38.0%     -    0s
     0     0  127.09846    0   35  204.00000  127.09846  37.7%     -    0s
     0     0  127.20199    0   39  204.00000  127.20199  37.6%     -    0s
     0     0  127.38933    0   36  204.00000  127.38933  37.6%     -    0s
     0     0  127.38933    0   36  204.00000  127.38933  37.6%     -    0s
     0     2  127.40313    0   36  204.00000  127.40313  37.5%     -    0s
*   78    30              15     202.0000000  138.45298  31.5%   3.6    0s

Cutting planes:
  Gomory: 2
  Cover: 2
  MIR: 32
  Flow cover: 28
  Zero half: 1
  Network: 8

Explored 1079 nodes (2532 simplex iterations) in 0.26 seconds
Thread count was 1 (of 4 available processors)

Optimal solution found (tolerance 1.00e-04)
Best objective 2.020000000000e+02, best bound 2.020000000000e+02, gap 0.0%
Tempo: 0.26 segundos

0 4 85 69 71 86 41 76 27 92 24 68 
1 3 0 76 0 78 14 12 64 42 12 6 
1 4 72 36 15 48 32 49 71 20 20 90 
2 3 70 27 51 19 21 60 65 58 30 28 
(227 208 137 231 108 197 227 212 86 192 )

